100 5
25 1000
20
30
10
40
20
20
20
10
20
30
40
20
10
10
20
20
20
20
40
10
10
40
30
10
20
30
20
10
10
10
20
10
10
30
20
40
10
30
10
30
20
10
20
10
10
10
10
10
10
30
19
3
5
16
16
19
23
20
19
17
9
3
6
17
16
16
9
21
27
23
14
8
5
8
16
31
7
27
30
13
10
9
14
18
2
28
13
19
25
6
13
14
3
23
6
26
35
9
15
3
40 50 0 960 0 0
25 85 0 911 10 1
22 75 0 919 10 1
22 85 0 910 10 1
20 80 644 764 10 1
20 85 0 909 10 3
18 75 388 508 10 3
15 75 0 914 10 2
15 80 367 487 10 1
10 35 371 491 10 3
10 40 519 639 10 1
8 40 195 315 10 2
8 45 0 917 10 3
5 35 653 773 10 1
5 45 0 914 10 2
2 40 174 294 10 1
0 40 0 908 10 1
0 45 703 823 10 2
44 5 0 904 10 3
42 10 0 909 10 1
42 15 0 914 10 1
40 5 0 905 10 3
40 15 375 495 10 1
38 5 201 321 10 3
38 15 0 914 10 2
35 5 784 904 10 1
95 30 0 891 10 1
95 35 146 266 10 3
92 30 0 894 10 2
90 35 0 897 10 2
88 30 246 366 10 1
88 35 0 899 10 2
87 30 0 898 10 2
85 25 80 200 10 1
85 35 0 902 10 2
67 85 657 777 10 1
65 85 43 163 10 1
65 82 0 909 10 2
62 80 278 398 10 3
60 80 64 184 10 2
60 85 329 449 10 1
58 75 376 496 10 1
55 80 33 153 10 1
55 85 0 911 10 1
55 82 217 337 10 2
20 82 37 157 10 3
18 80 0 912 10 3
2 45 0 911 10 1
42 5 0 904 10 2
42 12 440 560 10 2
72 35 0 914 10 2
55 20 0 916 10 3
25 30 0 925 10 3
20 50 375 495 10 1
55 60 0 931 10 1
30 60 599 719 10 2
50 35 557 677 10 3
30 25 0 923 10 1
15 10 782 902 10 1
10 20 0 907 10 1
15 60 0 923 10 1
45 65 0 934 10 3
65 35 167 287 10 1
65 20 0 910 10 2
45 30 191 311 10 3
35 40 11 131 10 2
41 37 566 686 10 2
64 42 268 388 10 3
40 60 612 732 10 1
31 52 157 277 10 2
35 69 810 930 10 2
65 55 0 924 10 2
63 65 0 922 10 1
2 60 0 910 10 3
20 20 645 765 10 3
5 5 0 892 10 1
60 12 268 388 10 2
23 3 764 884 10 3
8 56 365 485 10 3
6 68 352 472 10 1
47 47 822 942 10 3
49 58 0 937 10 3
27 43 0 935 10 2
37 31 0 930 10 2
57 29 395 515 10 2
63 23 0 914 10 2
21 24 0 917 10 2
12 24 359 479 10 1
24 58 260 380 10 3
67 5 0 897 10 3
37 47 0 945 10 1
49 42 0 937 10 3
53 43 14 134 10 2
61 52 808 928 10 3
57 48 0 932 10 1
56 37 0 929 10 3
55 54 0 934 10 2
4 18 0 901 10 1
26 52 0 935 10 2
26 35 308 428 10 1
31 67 810 930 10 1
6 61 0 960 5 4
94 3 0 960 5 4
38 72 0 960 5 4
71 11 0 960 5 4
15 20 0 960 5 4
0 0 0 0 0
0 0 0 0 0
0 0 0 0 0
0 0 0 0 0
0 0 1 0 0
1 0 0 0 0
1 0 0 0 0
0 0 0 0 0
0 0 0 0 1
0 0 0 0 0
1 0 0 0 0
1 0 0 0 0
0 0 0 0 0
1 0 0 0 0
0 0 0 0 0
0 0 0 0 0
1 0 0 0 0
0 0 0 1 0
0 0 0 0 0
0 0 0 0 0
0 0 0 0 1
0 0 0 0 0
0 0 0 0 1
0 0 0 0 1
0 0 0 0 0
0 0 0 0 0
0 1 0 0 0
0 1 0 0 0
0 0 0 1 0
0 0 0 0 0
0 0 0 1 0
0 0 0 1 0
0 0 0 0 0
0 0 0 1 0
0 0 0 0 0
0 0 0 0 0
0 0 1 0 0
0 0 1 0 0
0 0 1 0 0
0 0 0 0 0
0 0 0 0 0
0 0 0 0 0
0 0 0 0 0
0 0 1 0 0
0 0 1 0 0
0 0 1 0 0
0 0 0 0 0
0 0 0 1 0
0 0 0 0 1
0 0 0 1 0
0 0 0 1 0
0 0 0 0 1
0 0 0 0 0
0 0 0 0 0
0 0 1 0 0
0 0 0 1 0
0 0 0 0 0
0 0 0 0 0
0 0 0 0 0
0 0 0 0 0
0 0 1 0 0
0 0 0 0 0
0 0 0 1 0
0 0 0 0 1
0 0 0 0 1
0 0 0 0 1
0 0 0 1 0
0 0 0 0 0
0 0 1 0 0
0 0 1 0 0
0 0 1 0 0
0 0 0 0 0
1 0 0 0 0
0 0 0 0 1
0 0 0 0 0
0 0 0 1 0
0 0 0 0 1
1 0 0 0 0
0 0 0 0 0
0 0 1 0 0
0 0 1 0 0
0 0 0 0 1
0 0 0 0 1
0 0 0 1 0
0 0 0 1 0
0 0 0 0 1
0 0 0 0 0
1 0 0 0 0
0 0 0 1 0
0 0 0 0 0
0 0 1 0 0
0 0 1 0 0
0 0 1 0 0
0 0 0 0 0
0 0 0 1 0
0 0 1 0 0
0 0 0 0 0
1 0 0 0 0
0 0 0 0 0
0 0 0 0 0
